p wcnf 191 224 225 
1 71 62 0 
1 -21 135 0 
1 174 -50 0 
1 -191 -175 0 
1 100 -179 0 
1 174 -183 0 
1 -17 -30 0 
1 183 -40 0 
1 -111 -123 0 
1 -5 -50 0 
1 -112 36 0 
1 -163 190 0 
1 158 -184 0 
1 -141 79 0 
1 -55 152 0 
1 3 -56 0 
1 -169 3 0 
1 152 -158 0 
1 132 -161 0 
1 -146 -23 0 
1 85 10 0 
1 28 -130 0 
1 -73 54 0 
1 -101 190 0 
1 81 23 0 
1 -88 -79 0 
1 180 7 0 
1 -40 -83 0 
1 57 -14 0 
1 -14 186 0 
1 -129 -141 0 
1 -167 -186 0 
1 -48 70 0 
1 34 182 0 
1 -132 97 0 
1 78 5 0 
1 171 -37 0 
1 23 33 0 
1 107 125 0 
1 2 -170 0 
1 155 97 0 
1 67 143 0 
1 59 -157 0 
1 -128 152 0 
1 11 -103 0 
1 74 103 0 
1 -151 86 0 
1 68 151 0 
1 -88 -1 0 
1 -125 -5 0 
1 8 75 0 
1 48 28 0 
1 -29 -150 0 
1 -80 46 0 
1 -119 -72 0 
1 -160 113 0 
1 149 -171 0 
1 -63 60 0 
1 -14 -130 0 
1 48 142 0 
1 -181 -65 0 
1 20 177 0 
1 -160 166 0 
1 -28 178 0 
1 -141 2 0 
1 128 -123 0 
1 -114 178 0 
1 -184 -11 0 
1 143 120 0 
1 108 -185 0 
1 182 166 0 
1 124 62 0 
1 -189 -76 0 
1 -50 -106 0 
1 53 10 0 
1 -163 -186 0 
1 -48 -52 0 
1 30 -147 0 
1 -131 72 0 
1 129 -92 0 
1 -100 -16 0 
1 -118 39 0 
1 -95 144 0 
1 -31 -99 0 
1 78 48 0 
1 -182 8 0 
1 158 10 0 
1 -72 132 0 
1 136 -77 0 
1 -3 -163 0 
1 27 -78 0 
1 -117 -53 0 
1 -174 -148 0 
1 128 -48 0 
1 -16 35 0 
1 -39 55 0 
1 1 -128 0 
1 119 -151 0 
1 -135 -12 0 
1 -152 48 0 
1 174 163 0 
1 156 -46 0 
1 -190 -81 0 
1 150 70 0 
1 35 15 0 
1 86 -135 0 
1 159 -1 0 
1 -119 98 0 
1 42 162 0 
1 127 -103 0 
1 -96 -182 0 
1 -98 170 0 
1 11 -134 0 
1 22 -101 0 
1 89 84 0 
1 178 -147 0 
1 -67 91 0 
1 5 -74 0 
1 181 159 0 
1 13 -75 0 
1 169 -115 0 
1 179 -185 0 
1 -141 -139 0 
1 163 -64 0 
1 -108 -114 0 
1 -139 157 0 
1 155 -164 0 
1 -68 12 0 
1 20 -164 0 
1 -131 115 0 
1 -56 123 0 
1 47 -136 0 
1 157 -123 0 
1 -79 -84 0 
1 -12 -180 0 
1 177 -67 0 
1 5 91 0 
1 154 -95 0 
1 -19 27 0 
1 150 -70 0 
1 -175 136 0 
1 160 -48 0 
1 -163 -110 0 
1 89 -151 0 
1 -148 134 0 
1 -175 -96 0 
1 176 -144 0 
1 95 121 0 
1 -184 180 0 
1 -108 -76 0 
1 83 174 0 
1 13 10 0 
1 155 6 0 
1 2 -13 0 
1 144 -37 0 
1 -28 -55 0 
1 -147 113 0 
1 -179 -52 0 
1 -103 160 0 
1 10 128 0 
1 118 -94 0 
1 121 163 0 
1 -94 -169 0 
1 187 40 0 
1 124 -25 0 
1 62 -26 0 
1 -40 -7 0 
1 -134 -3 0 
1 187 140 0 
1 -12 96 0 
1 14 16 0 
1 15 188 0 
1 186 -43 0 
1 117 -152 0 
1 -17 -166 0 
1 78 -19 0 
1 135 -132 0 
1 -160 -78 0 
1 -120 66 0 
1 -61 74 0 
1 -183 -65 0 
1 1 -163 0 
1 158 -80 0 
1 -147 73 0 
1 164 90 0 
1 32 -49 0 
1 39 10 0 
1 39 -190 0 
1 8 -153 0 
1 4 -82 0 
1 -67 -53 0 
1 -52 -134 0 
1 32 49 0 
1 88 -131 0 
1 58 -142 0 
1 -38 188 0 
1 -17 182 0 
1 -149 -16 0 
1 -26 59 0 
1 29 42 0 
1 128 92 0 
1 -127 -96 0 
1 -155 -53 0 
1 -86 -146 0 
1 58 90 0 
1 120 -33 0 
1 177 39 0 
1 49 112 0 
1 -138 16 0 
1 119 -52 0 
1 20 26 0 
1 181 -95 0 
1 -125 -153 0 
1 -52 146 0 
1 -44 32 0 
1 126 49 0 
1 122 42 0 
1 -97 -63 0 
1 45 -27 0 
1 166 157 0 
1 -50 -42 0 
1 151 47 0 
1 188 60 0 
1 183 19 0 
